p cnf 260 376
37 -39 -57 71 0
37 -39 -57 -71 0
-48 -49 63 72 0
-48 -49 63 -72 0
16 49 -13 73 0
16 49 -13 -73 0
69 -56 -22 74 0
69 -56 -22 -74 0
-35 -28 -12 75 0
-35 -28 -12 -75 0
32 51 -31 76 0
32 51 -31 -76 0
-6 7 57 77 0
-6 7 57 -77 0
-40 30 60 78 0
-40 30 60 -78 0
53 54 -26 79 0
53 54 -26 -79 0
-8 14 67 80 0
-8 14 67 -80 0
51 20 -56 81 0
51 20 -56 -81 0
45 16 43 82 0
45 16 43 -82 0
-38 3 27 83 0
-38 3 27 -83 0
55 33 -15 84 0
55 33 -15 -84 0
-20 -19 64 85 0
-20 -19 64 -85 0
43 34 -3 86 0
43 34 -3 -86 0
12 -28 35 87 0
12 -28 35 -87 0
-65 10 4 88 0
-65 10 4 -88 0
23 47 64 89 0
23 47 64 -89 0
59 -58 24 90 0
59 -58 24 -90 0
-5 -30 -39 91 0
-5 -30 -39 -91 0
68 -52 -53 92 0
68 -52 -53 -92 0
69 22 56 93 0
69 22 56 -93 0
-14 2 -15 94 0
-14 2 -15 -94 0
-7 2 -62 95 0
-7 2 -62 -95 0
-66 23 -33 96 0
-66 23 -33 -96 0
45 -16 -43 97 0
45 -16 -43 -97 0
-50 -1 55 98 0
-50 -1 55 -98 0
43 -34 3 99 0
43 -34 3 -99 0
48 25 -59 100 0
48 25 -59 -100 0
-2 7 -62 101 0
-2 7 -62 -101 0
-60 -41 -42 102 0
-60 -41 -42 -102 0
-59 58 24 103 0
-59 58 24 -103 0
-37 -52 -28 104 0
-37 -52 -28 -104 0
56 -22 -69 105 0
56 -22 -69 -105 0
-34 21 9 106 0
-34 21 9 -106 0
60 -30 40 107 0
60 -30 40 -107 0
-34 -21 -9 108 0
-34 -21 -9 -108 0
17 -19 -70 109 0
17 -19 -70 -109 0
-7 -2 62 110 0
-7 -2 62 -110 0
47 10 -61 111 0
47 10 -61 -111 0
-68 -53 52 112 0
-68 -53 52 -112 0
36 5 1 113 0
36 5 1 -113 0
49 13 -16 114 0
49 13 -16 -114 0
59 58 -24 115 0
59 58 -24 -115 0
1 55 50 116 0
1 55 50 -116 0
57 6 -7 117 0
57 6 -7 -117 0
-66 33 -23 118 0
-66 33 -23 -118 0
47 61 -10 119 0
47 61 -10 -119 0
-51 31 32 120 0
-51 31 32 -120 0
-45 -18 35 121 0
-45 -18 35 -121 0
70 -19 -17 122 0
70 -19 -17 -122 0
-55 -15 -33 123 0
-55 -15 -33 -123 0
-46 -31 -68 124 0
-46 -31 -68 -124 0
-12 32 44 125 0
-12 32 44 -125 0
-56 -20 -51 126 0
-56 -20 -51 -126 0
-31 68 46 127 0
-31 68 46 -127 0
-57 -7 -6 128 0
-57 -7 -6 -128 0
-9 -44 -36 129 0
-9 -44 -36 -129 0
-67 8 14 130 0
-67 8 14 -130 0
57 39 37 131 0
57 39 37 -131 0
-41 -66 -38 132 0
-41 -66 -38 -132 0
68 53 52 133 0
68 53 52 -133 0
40 -46 -25 134 0
40 -46 -25 -134 0
23 -64 -47 135 0
23 -64 -47 -135 0
64 -47 -23 136 0
64 -47 -23 -136 0
-29 -63 -67 137 0
-29 -63 -67 -137 0
-61 -42 -21 138 0
-61 -42 -21 -138 0
-11 22 -4 139 0
-11 22 -4 -139 0
13 -26 50 140 0
13 -26 50 -140 0
52 -28 37 141 0
52 -28 37 -141 0
-58 -24 -59 142 0
-58 -24 -59 -142 0
11 -4 -22 143 0
11 -4 -22 -143 0
-52 53 -68 144 0
-52 53 -68 -144 0
-27 -38 -3 145 0
-27 -38 -3 -145 0
-30 -60 -40 146 0
-30 -60 -40 -146 0
66 -23 -33 147 0
66 -23 -33 -147 0
-2 -15 14 148 0
-2 -15 14 -148 0
-29 -70 -54 149 0
-29 -70 -54 -149 0
-65 -69 8 150 0
-65 -69 8 -150 0
25 46 40 151 0
25 46 40 -151 0
41 66 -38 152 0
41 66 -38 -152 0
67 -29 63 153 0
67 -29 63 -153 0
6 -57 7 154 0
6 -57 7 -154 0
-5 -1 36 155 0
-5 -1 36 -155 0
47 -23 -64 156 0
47 -23 -64 -156 0
-49 16 13 157 0
-49 16 13 -157 0
-47 10 61 158 0
-47 10 61 -158 0
-13 26 50 159 0
-13 26 50 -159 0
5 30 -39 160 0
5 30 -39 -160 0
4 -10 65 161 0
4 -10 65 -161 0
-54 26 53 162 0
-54 26 53 -162 0
11 -6 27 163 0
11 -6 27 -163 0
7 2 62 164 0
7 2 62 -164 0
-9 21 34 165 0
-9 21 34 -165 0
-37 -57 39 166 0
-37 -57 39 -166 0
28 52 -37 167 0
28 52 -37 -167 0
-12 -44 -32 168 0
-12 -44 -32 -168 0
5 39 -30 169 0
5 39 -30 -169 0
42 -41 60 170 0
42 -41 60 -170 0
-70 -17 19 171 0
-70 -17 19 -171 0
54 -53 26 172 0
54 -53 26 -172 0
-25 -59 -48 173 0
-25 -59 -48 -173 0
-48 59 25 174 0
-48 59 25 -174 0
-31 -32 -51 175 0
-31 -32 -51 -175 0
-60 30 40 176 0
-60 30 40 -176 0
29 -67 63 177 0
29 -67 63 -177 0
-11 4 -22 178 0
-11 4 -22 -178 0
-61 42 21 179 0
-61 42 21 -179 0
-13 -26 -50 180 0
-13 -26 -50 -180 0
36 -9 44 181 0
36 -9 44 -181 0
-40 -46 25 182 0
-40 -46 25 -182 0
41 38 -66 183 0
41 38 -66 -183 0
69 65 8 184 0
69 65 8 -184 0
-20 51 56 185 0
-20 51 56 -185 0
-39 -37 57 186 0
-39 -37 57 -186 0
66 -41 38 187 0
66 -41 38 -187 0
-8 -69 65 188 0
-8 -69 65 -188 0
41 60 -42 189 0
41 60 -42 -189 0
34 -43 3 190 0
34 -43 3 -190 0
61 -21 42 191 0
61 -21 42 -191 0
-64 -19 20 192 0
-64 -19 20 -192 0
-16 -13 -49 193 0
-16 -13 -49 -193 0
-63 -48 49 194 0
-63 -48 49 -194 0
19 70 17 195 0
19 70 17 -195 0
45 -18 -35 196 0
45 -18 -35 -196 0
17 -58 18 197 0
17 -58 18 -197 0
31 51 -32 198 0
31 51 -32 -198 0
-3 -43 -34 199 0
-3 -43 -34 -199 0
-6 -27 -11 200 0
-6 -27 -11 -200 0
44 12 -32 201 0
44 12 -32 -201 0
-14 -2 15 202 0
-14 -2 15 -202 0
32 12 -44 203 0
32 12 -44 -203 0
-40 46 -25 204 0
-40 46 -25 -204 0
67 -63 29 205 0
67 -63 29 -205 0
18 -35 -45 206 0
18 -35 -45 -206 0
10 65 -4 207 0
10 65 -4 -207 0
-1 -36 5 208 0
-1 -36 5 -208 0
19 20 64 209 0
19 20 64 -209 0
15 55 -33 210 0
15 55 -33 -210 0
58 18 -17 211 0
58 18 -17 -211 0
-64 19 -20 212 0
-64 19 -20 -212 0
-46 31 68 213 0
-46 31 68 -213 0
-47 -61 -10 214 0
-47 -61 -10 -214 0
63 49 48 215 0
63 49 48 -215 0
-65 -8 69 216 0
-65 -8 69 -216 0
62 -24 217 218 0
62 -24 217 -218 0
62 -24 -217 219 0
62 -24 -217 -219 0
-36 1 -5 220 0
-36 1 -5 -220 0
-56 22 -69 221 0
-56 22 -69 -221 0
-25 59 48 222 0
-25 59 48 -222 0
-14 -67 -8 223 0
-14 -67 -8 -223 0
-18 -17 -58 224 0
-18 -17 -58 -224 0
3 -27 38 225 0
3 -27 38 -225 0
-55 50 -1 226 0
-55 50 -1 -226 0
15 14 2 227 0
15 14 2 -227 0
54 29 -70 228 0
54 29 -70 -228 0
-45 43 -16 229 0
-45 43 -16 -229 0
15 33 -55 230 0
15 33 -55 -230 0
42 41 -60 231 0
42 41 -60 -231 0
31 -68 46 232 0
31 -68 46 -232 0
48 -49 -63 233 0
48 -49 -63 -233 0
28 -12 35 234 0
28 -12 35 -234 0
54 -29 70 235 0
54 -29 70 -235 0
-18 58 17 236 0
-18 58 17 -236 0
38 -3 27 237 0
38 -3 27 -237 0
30 -5 39 238 0
30 -5 39 -238 0
28 -52 37 239 0
28 -52 37 -239 0
-54 29 70 240 0
-54 29 70 -240 0
-35 28 12 241 0
-35 28 12 -241 0
-50 13 26 242 0
-50 13 26 -242 0
20 -51 56 243 0
20 -51 56 -243 0
4 11 22 244 0
4 11 22 -244 0
36 -44 9 245 0
36 -44 9 -245 0
-62 24 246 247 0
-62 24 246 -247 0
-62 24 -246 248 0
-62 24 -246 -248 0
45 18 35 249 0
45 18 35 -249 0
8 67 -14 250 0
8 67 -14 -250 0
-10 -65 -4 251 0
-10 -65 -4 -251 0
23 66 33 252 0
23 66 33 -252 0
9 -36 44 253 0
9 -36 44 -253 0
11 6 -27 254 0
11 6 -27 -254 0
27 6 -11 255 0
27 6 -11 -255 0
9 -21 34 256 0
9 -21 34 -256 0
-50 1 -55 257 0
-50 1 -55 -257 0
-53 -54 -26 258 0
-53 -54 -26 -258 0
16 -45 -43 259 0
16 -45 -43 -259 0
21 -42 61 260 0
21 -42 61 -260 0

